DIMENSION : 7
CAPACITY : 32
NODE_COORD_SECTION
1 77.4238889 12.79694444 
1 77.5806968 12.9803024 
2 77.571323 12.9775273 
3 77.5519728 12.964517 
4 77.5429133 12.9855055 
5 77.59369 12.97194 
6 77.6029387 12.9829971 
7 77.6085652 12.9730522 
DEMAND_SECTION
1 0
2 2 
3 5 
4 6 
5 6 
6 12 
7 13 
8 1 
